Version identifier: 22.1.1.0 | 2022-11-28 | 9160aff4d
CPXPARAM_Read_DataCheck                          1
CPXPARAM_MIP_Cuts_Covers                         1
CPXPARAM_MIP_Strategy_NodeSelect                 2
CPXPARAM_MIP_Cuts_FlowCovers                     1
CPXPARAM_MIP_Cuts_MIRCut                         1
CPXPARAM_MIP_Strategy_HeuristicFreq              5
CPXPARAM_TimeLimit                               60
Tried aggregator 2 times.
MIP Presolve eliminated 76 rows and 161 columns.
MIP Presolve added 32 rows and 0 columns.
MIP Presolve modified 2938 coefficients.
Aggregator did 8 substitutions.
Reduced MIP has 690 rows, 848 columns, and 4076 nonzeros.
Reduced MIP has 824 binaries, 0 generals, 0 SOSs, and 0 indicators.
Presolve time = 0.00 sec. (5.92 ticks)
Found incumbent of value 2116.000000 after 0.01 sec. (9.72 ticks)
Probing time = 0.00 sec. (2.74 ticks)
Tried aggregator 1 time.
Detecting symmetries...
Reduced MIP has 690 rows, 848 columns, and 4076 nonzeros.
Reduced MIP has 824 binaries, 0 generals, 0 SOSs, and 0 indicators.
Presolve time = 0.00 sec. (2.64 ticks)
Probing time = 0.00 sec. (2.72 ticks)
Clique table members: 2437.
MIP emphasis: balance optimality and feasibility.
MIP search method: dynamic search.
Parallel mode: deterministic, using up to 12 threads.
Root relaxation solution time = 0.00 sec. (2.34 ticks)

        Nodes                                         Cuts/
   Node  Left     Objective  IInf  Best Integer    Best Bound    ItCnt     Gap

*     0+    0                         2116.0000        0.0000           100.00%
*     0+    0                         1674.0000        0.0000           100.00%
      0     0      213.4083    39     1674.0000      213.4083       89   87.25%
      0     0      226.3778    37     1674.0000      Cuts: 48      138   86.48%
      0     0      228.0000    41     1674.0000      Cuts: 27      167   86.38%
      0     0      229.3500    44     1674.0000      Cuts: 21      198   86.30%
      0     0      229.3500    41     1674.0000      Cuts: 26      213   86.30%
      0     0      229.3500    40     1674.0000       Cuts: 4      227   86.30%
Detecting symmetries...
*     0+    0                          280.0000      229.3500            18.09%
*     0+    0                          266.0000      229.4489            13.74%
Detecting symmetries...

Repeating presolve.
Tried aggregator 1 time.
MIP Presolve eliminated 392 rows and 423 columns.
Reduced MIP has 298 rows, 425 columns, and 1614 nonzeros.
Reduced MIP has 401 binaries, 0 generals, 0 SOSs, and 0 indicators.
Presolve time = 0.00 sec. (1.22 ticks)
Probing time = 0.00 sec. (1.23 ticks)
Cover probing fixed 0 vars, tightened 14 bounds.
Tried aggregator 1 time.
Detecting symmetries...
MIP Presolve modified 148 coefficients.
Reduced MIP has 298 rows, 425 columns, and 1614 nonzeros.
Reduced MIP has 401 binaries, 0 generals, 0 SOSs, and 0 indicators.
Presolve time = 0.00 sec. (1.19 ticks)
Represolve time = 0.01 sec. (5.07 ticks)
Probing time = 0.00 sec. (1.21 ticks)
Clique table members: 1139.
MIP emphasis: balance optimality and feasibility.
MIP search method: dynamic search.
Parallel mode: deterministic, using up to 12 threads.
Root relaxation solution time = 0.00 sec. (2.85 ticks)

        Nodes                                         Cuts/
   Node  Left     Objective  IInf  Best Integer    Best Bound    ItCnt     Gap

*     0+    0                          266.0000      229.4489            13.74%
      0     0      229.3500    41      266.0000      229.4489      397   13.74%
      0     0      229.4447    48      266.0000      Cuts: 53      455   13.74%
      0     0      229.4458    45      266.0000      Cuts: 22      465   13.74%
      0     0      229.8615    37      266.0000       Cuts: 9      500   13.59%
      0     0      230.7657    47      266.0000      Cuts: 30      542   13.25%
      0     0      232.0000    18      266.0000      Cuts: 58      585   12.78%
      0     0      232.4000    37      266.0000      Cuts: 33      626   12.63%
      0     0      232.8750    70      266.0000      Cuts: 26      655   12.45%
      0     0      233.1753    70      266.0000      Cuts: 52      700   12.34%
      0     0      233.5000    43      266.0000      Cuts: 12      709   12.22%
      0     0      233.5324    72      266.0000       Cuts: 8      730   12.21%
      0     0      234.3656    58      266.0000      Cuts: 42      797   11.89%
      0     0      234.8256    72      266.0000      Cuts: 42      835   11.72%
      0     0      234.8640    79      266.0000      Cuts: 39      852   11.71%
      0     0      235.2062    82      266.0000      Cuts: 16      877   11.58%
      0     0      235.3799    67      266.0000      Cuts: 23      911   11.51%
      0     0      235.4555    80      266.0000      Cuts: 25      924   11.48%
      0     0      235.5556    72      266.0000      Cuts: 37      955   11.45%
      0     0      235.6043    87      266.0000      Cuts: 11      977   11.43%
      0     0      235.6667    34      266.0000      Cuts: 12      996   11.40%
      0     0      235.6702    97      266.0000      Cuts: 13     1016   11.40%
      0     0      235.9545    88      266.0000      Cuts: 41     1054   11.30%
      0     0      236.0000    76      266.0000      Cuts: 23     1069   11.28%
*     0+    0                          243.0000      236.0000             2.88%
      0     0        cutoff            243.0000      243.0000     1069    0.00%
Elapsed time = 0.25 sec. (203.32 ticks, tree = 0.01 MB, solutions = 5)

GUB cover cuts applied:  2
Clique cuts applied:  13
Cover cuts applied:  34
Implied bound cuts applied:  5
Flow cuts applied:  0
Mixed integer rounding cuts applied:  29
Zero-half cuts applied:  19
Lift and project cuts applied:  2
Gomory fractional cuts applied:  8

Root node processing (before b&c):
  Real time             =    0.25 sec. (203.39 ticks)
Parallel b&c, 12 threads:
  Real time             =    0.00 sec. (0.00 ticks)
  Sync time (average)   =    0.00 sec.
  Wait time (average)   =    0.00 sec.
                          ------------
Total (root+branch&cut) =    0.25 sec. (203.39 ticks)
